#######################################
### Exact MIP solver for the HHCRSP ###
#######################################
-- Instance file: new-instances/HHCRSP_300_60_99_0.4_C_RC.txt
-- Max threads: 4
-- Time limit: 999999 seconds
-- Use initial solution: No
Trivial flow violations prevented generating 1248664 variables.
Version identifier: 20.1.0.0 | 2020-11-10 | 9bedb6d68
CPXPARAM_Threads                                 4
CPXPARAM_TimeLimit                               999999
Parallel mode: deterministic, using up to 4 threads for concurrent optimization:
 * Starting dual Simplex on 1 thread...
 * Starting Barrier on 3 threads...
Tried aggregator 1 time.
LP Presolve eliminated 52266 rows and 12976 columns.
Reduced LP has 1491604 rows, 1409866 columns, and 37274921 nonzeros.
Presolve time = 40.73 sec. (8032.58 ticks)
Symmetry aggregator did 2485377 additional substitutions.

Iteration log . . .
Iteration:     1   Dual objective     =             0.000000
Iteration:  1399   Dual objective     =           405.000000

Dual crossover.
  Dual:  Fixing 2365 variables.
     2364 DMoves:  Infeasibility  1.64268599e-12  Objective  4.06333333e+02
        0 DMoves:  Infeasibility  5.69936955e-13  Objective  4.06333333e+02
  Dual:  Pushed 98, exchanged 2267.
  Primal:  Fixing 1607 variables.
     1606 PMoves:  Infeasibility  5.55111512e-17  Objective  4.06333333e+02
        0 PMoves:  Infeasibility  9.99200722e-16  Objective  4.06333333e+02
  Primal:  Pushed 1445, exchanged 162.

Dual simplex solved model.


Solution status from MIP model:
-- Processing time: 67.119 sec.
-- Memory used: 1267.85 MB
-- Best bound: inf
-- Obj value: 406.333
-- Gap: inf%
-- Total distance: 1219
-- Total tardiness: 0
-- Largest tardiness: 0
